--- Job reto7.gms Start 09/07/24 13:02:49 46.5.0 a671108d WEX-WEI x86 64bit/MS Windows
--- Applying:
    C:\GAMS\46\gmsprmNT.txt
--- GAMS Parameters defined
    Input C:\Users\progra.DESKTOP-GV4Q93K\Documents\Vstudio\Geneticos\retointegrador\reto7.gms
    PageSize 0
    ScrDir C:\Users\progra.DESKTOP-GV4Q93K\Documents\Vstudio\Geneticos\retointegrador\225g\
    SysDir C:\GAMS\46\
    LogOption 3
    ErrMsg 1
    ErrorLog 99
    IDE 1
    LstTitleLeftAligned 1
Licensee: GAMS Community License for Ricardo Kaleb FloresG240527|0002AO-GEN
          INSTITUTO TECNOLOGICO Y DE EST. SUP. DE MONTERREY, IndustrCL15732
          C:\Users\progra.DESKTOP-GV4Q93K\Documents\GAMS\gamslice.txt
          Ricardo Kaleb Flores Alfonso, a01198716@tec.mx                   
          Community license for demonstration and instructional purposes only
Processor information: 1 socket(s), 4 core(s), and 8 thread(s) available
GAMS 46.5.0   Copyright (C) 1987-2024 GAMS Development. All rights reserved
--- Starting compilation
--- reto7.gms(8) 3 Mb
--- . dist_matrix6.csv(41) 3 Mb
--- reto7.gms(27) 3 Mb
--- Starting execution: elapsed 0:00:01.734
--- Generating MIP model transpor_1
--- reto7.gms(65) 5 Mb
---   1,563 rows  1,640 columns  9,245 non-zeroes
---   1,600 discrete-columns
--- Range statistics (absolute non-zero finite values)
--- RHS       [min, max] : [ 1.000E+00, 3.900E+01] - Zero values observed as well
--- Bound     [min, max] : [ 1.000E+00, 1.000E+00] - Zero values observed as well
--- Matrix    [min, max] : [ 2.600E-01, 9.990E+02]
--- Executing CPLEX (Solvelink=2): elapsed 0:00:02.158

IBM ILOG CPLEX   46.5.0 a671108d May 8, 2024           WEI x86 64bit/MS Window

*** This solver runs with a community license. No commercial use.
--- GMO setup time: 0.00s
--- Space for names approximately 0.05 Mb
--- Use option 'names no' to turn use of names off
--- GMO memory 0.87 Mb (peak 0.88 Mb)
--- Dictionary memory 0.00 Mb
--- Cplex 22.1.1.0 link memory 0.05 Mb (peak 0.22 Mb)
--- Starting Cplex

Version identifier: 22.1.1.0 | 2022-11-27 | 9160aff4d
CPXPARAM_Advance                                 0
CPXPARAM_MIP_Display                             4
CPXPARAM_MIP_Pool_Capacity                       0
CPXPARAM_MIP_Tolerances_AbsMIPGap                0
Generic callback                                 0x50
Found incumbent of value 39960.000000 after 0.00 sec. (0.13 ticks)
Tried aggregator 1 time.
MIP Presolve eliminated 0 rows and 1 columns.
Reduced MIP has 1562 rows, 1639 columns, and 7646 nonzeros.
Reduced MIP has 1600 binaries, 0 generals, 0 SOSs, and 0 indicators.
Presolve time = 0.02 sec. (3.84 ticks)
Probing time = 0.00 sec. (2.89 ticks)
Tried aggregator 1 time.
Detecting symmetries...
Reduced MIP has 1562 rows, 1639 columns, and 7646 nonzeros.
Reduced MIP has 1600 binaries, 0 generals, 0 SOSs, and 0 indicators.
Presolve time = 0.01 sec. (5.32 ticks)
Probing time = 0.00 sec. (2.89 ticks)
Clique table members: 821.
MIP emphasis: balance optimality and feasibility.
MIP search method: dynamic search.
Parallel mode: deterministic, using up to 8 threads.
Parallel mode: deterministic, using up to 2 threads for parallel tasks at root LP.
Parallel mode: deterministic, using up to 6 threads for concurrent optimization:
 * Starting dual Simplex on 1 thread...
 * Starting Barrier on 4 threads...
 * Starting primal Simplex on 1 thread...
Tried aggregator 1 time.
No LP presolve or aggregator reductions.
Presolve time = 0.00 sec. (0.82 ticks)
Initializing dual steep norms . . .

Iteration log . . .
Iteration:     1   Dual objective     =            57.660000
Iteration:    83   Dual objective     =            79.682750

Dual simplex solved model.

Root relaxation solution time = 0.00 sec. (3.47 ticks)

        Nodes                                         Cuts/
   Node  Left     Objective  IInf  Best Integer    Best Bound    ItCnt     Gap

*     0+    0                        39960.0000        0.0000           100.00%
Found incumbent of value 39960.000000 after 0.23 sec. (24.40 ticks)
      0     0       79.6953    80    39960.0000       79.6953       87   99.80%
      0     0       88.7250    76    39960.0000     Cuts: 145      136   99.78%
      0     0       89.3630    93    39960.0000      Cuts: 50      202   99.78%
      0     0       91.1300    87    39960.0000      Cuts: 74      227   99.77%
      0     0       91.1300    86    39960.0000      Cuts: 19      237   99.77%
      0     0       91.1300    73    39960.0000    MIRcuts: 3      240   99.77%
      0     0       91.1300    80    39960.0000      Cuts: 47      262   99.77%
*     0+    0                          142.8400       91.1300            36.20%
Found incumbent of value 142.840000 after 4.80 sec. (235.22 ticks)
*     0+    0                          139.3200       94.7255            32.01%
Found incumbent of value 139.320000 after 7.97 sec. (401.03 ticks)
      0     0  -1.00000e+75     0      139.3200       94.7255      262   32.01%
*     0+    0                          108.2800       94.7255            12.52%
Found incumbent of value 108.280000 after 8.27 sec. (402.04 ticks)
      0     2       91.1300    72      108.2800       95.0300      262   12.24%
Elapsed time = 10.48 sec. (403.80 ticks, tree = 0.02 MB)
*    16+    5                          106.7000       95.0300            10.94%
Found incumbent of value 106.700000 after 11.34 sec. (439.32 ticks)
*   294   213      integral     0      105.2100       95.0300     3767    9.68%
                                                     Cuts: 36                  
Found incumbent of value 105.210000 after 13.44 sec. (523.29 ticks)
*   323+    1                           97.6400       95.0300             2.67%
                                                   MIRcuts: 2                  
Found incumbent of value 97.640000 after 13.69 sec. (531.93 ticks)
*   675+  209                           97.3500       95.0300             2.38%
                                                     Cuts: 37                  
Found incumbent of value 97.350000 after 15.19 sec. (608.07 ticks)
    881   309       96.9760     4       97.3500       95.0300    10244    2.38%
                                                      Cuts: 9                  
*   890   304      integral     0       96.9900       95.0300    10249    2.02%
Found incumbent of value 96.990000 after 15.67 sec. (643.36 ticks)
*  1120   238      integral     0       96.6600       95.0300    13778    1.69%
                                                      Cuts: 3                  
Found incumbent of value 96.660000 after 16.42 sec. (680.94 ticks)

Clique cuts applied:  13
Cover cuts applied:  27
Implied bound cuts applied:  85
Flow cuts applied:  14
Mixed integer rounding cuts applied:  62
Zero-half cuts applied:  1
Multi commodity flow cuts applied:  24
Lift and project cuts applied:  1
Gomory fractional cuts applied:  14

Root node processing (before b&c):
  Real time             =    8.45 sec. (402.95 ticks)
Parallel b&c, 8 threads:
  Real time             =   19.64 sec. (356.82 ticks)
  Sync time (average)   =   12.11 sec.
  Wait time (average)   =    0.00 sec.
                          ------------
Total (root+branch&cut) =   28.09 sec. (759.77 ticks)

--- MIP status (101): integer optimal solution.
--- Cplex Time: 30.58sec (det. 759.78 ticks)

--- Returning a primal only solution to GAMS (marginals all set to NA).
--- Fixing integer variables and solving final LP...

Version identifier: 22.1.1.0 | 2022-11-27 | 9160aff4d
CPXPARAM_Advance                                 2
CPXPARAM_MIP_Display                             4
CPXPARAM_MIP_Pool_Capacity                       0
CPXPARAM_MIP_Tolerances_AbsMIPGap                0
Tried aggregator 1 time.
LP Presolve eliminated 80 rows and 1601 columns.
Reduced LP has 1482 rows, 39 columns, and 2964 nonzeros.
Presolve time = 0.00 sec. (1.66 ticks)

Iteration log . . .
Iteration:     1   Dual objective     =            96.660000

--- Fixed MIP status (1): optimal.
--- Cplex Time: 0.02sec (det. 3.82 ticks)


Proven optimal solution
MIP Solution:           96.660000    (21187 iterations, 1557 nodes)
Final Solve:            96.660000    (38 iterations)

Best possible:          96.660000
Absolute gap:            0.000000
Relative gap:            0.000000

--- Reading solution for model transpor_1
--- reto7.gms(65) 5 Mb  34 secs
*** Status: Normal completion
--- Job reto7.gms Stop 09/07/24 13:03:27 elapsed 0:00:38.257
